language ESSENCE' 1.0
$ loaded file: carseqdata/csplib-instance-44
letting numcars=200
letting numclasses=24
letting numoptions=5
letting optMax=[1, 2, 1, 2, 1]
letting windowSize=[2, 3, 3, 5, 5]
letting numberPerClass=[3, 3, 35, 14, 4, 3, 22, 1, 2, 3, 3, 9, 1, 2, 11, 4, 4, 33, 14, 5, 16, 2, 3, 3]
letting optionsRequired=[[0, 1, 0, 1, 1], [0, 1, 1, 0, 0], [1, 0, 0, 0, 0], [1, 1, 0, 0, 0], [1, 0, 1, 1, 0], [1, 0, 0, 0, 1], [0, 0, 0, 1, 0], [0, 0, 1, 1, 1], [1, 1, 1, 0, 0], [0, 1, 1, 1, 0], [1, 0, 0, 1, 1], [1, 0, 1, 0, 0], [1, 1, 1, 1, 0], [0, 0, 1, 0, 1], [0, 0, 0, 0, 1], [1, 0, 0, 1, 0], [1, 1, 0, 1, 0], [0, 1, 0, 0, 0], [0, 1, 0, 1, 0], [0, 0, 1, 1, 0], [0, 0, 1, 0, 0], [0, 1, 1, 0, 1], [1, 1, 0, 0, 1], [0, 1, 0, 0, 1]]
